qbf_easy_train/easy_2065_UNSAT.qdimacs
p cnf 48 146
a 27 38 47 0
e 1 2 3 4 5 6 7 8 9 10 11 12 13 14 15 16 17 18 19 20 21 22 23 24 25 26 28 29 30 31 32 33 34 35 36 37 39 40 41 42 43 44 45 46 48 0
3 1 0
3 -2 0
-1 2 -3 0
6 -4 0
6 5 0
4 -5 -6 0
8 -5 0
8 -7 0
5 7 -8 0
-10 -8 0
-10 9 0
8 -9 10 0
-11 -6 0
-11 -10 0
6 10 11 0
12 11 0
12 -8 0
-11 8 -12 0
4 2 -13 0
-4 -2 -13 0
4 -2 13 0
-4 2 13 0
-12 -13 -14 0
12 13 -14 0
-12 13 14 0
12 -13 14 0
3 -14 -15 0
-3 14 -15 0
3 14 15 0
-3 -14 15 0
17 -16 0
17 4 0
16 -4 -17 0
17 -2 -18 0
-17 2 -18 0
17 2 18 0
-17 -2 18 0
-19 12 0
-19 -18 0
-12 18 19 0
-20 -11 0
-20 9 0
11 -9 20 0
-21 -19 0
-21 -20 0
19 20 21 0
-22 -16 0
-22 13 0
16 -13 22 0
23 -21 0
23 -22 0
21 22 -23 0
-5 -11 -24 0
5 11 -24 0
-5 11 24 0
5 -11 24 0
-25 16 0
-25 -24 0
-16 24 25 0
1 -25 -26 0
-1 25 -26 0
1 25 26 0
-1 -25 26 0
-24 -11 -27 0
24 11 -27 0
-24 11 27 0
24 -11 27 0
28 -26 0
28 -27 0
26 27 -28 0
-10 -25 -29 0
10 25 -29 0
-10 25 29 0
10 -25 29 0
-30 -28 0
-30 -29 0
28 29 30 0
23 30 -31 0
-23 -30 -31 0
23 -30 31 0
-23 30 31 0
32 15 0
32 31 0
-15 -31 -32 0
-33 -7 0
-33 6 0
7 -6 33 0
33 13 -34 0
-33 -13 -34 0
33 -13 34 0
-33 13 34 0
-35 6 0
-35 16 0
-6 -16 35 0
-36 18 0
-36 -18 0
-35 36 -37 0
35 -36 -37 0
-35 -36 37 0
35 36 37 0
38 -2 0
38 -8 0
2 8 -38 0
-39 -37 0
-39 -38 0
37 38 39 0
-4 5 -40 0
4 -5 -40 0
-4 -5 40 0
4 5 40 0
-41 40 0
-41 -40 0
41 2 -42 0
-41 -2 -42 0
41 -2 42 0
-41 2 42 0
43 -39 0
43 -42 0
39 42 -43 0
45 -16 0
45 44 0
16 -44 -45 0
-43 45 -46 0
43 -45 -46 0
-43 -45 46 0
43 45 46 0
47 34 0
47 46 0
-34 -46 -47 0
48 32 0
48 47 0
-32 -47 -48 0
6 -31 -4 -5 -11 45 3 0
-10 -9 36 -43 0
-3 2 0
44 10 -38 -48 0
46 -15 -11 0
-8 -46 18 -22 7 0
-25 2 3 27 -43 0
45 -32 -3 14 -41 11 -46 0
-24 -16 -14 42 -22 -5 0
35 -12 -31 -19 40 32 3 9 0
29 -22 -32 -1 -48 0
45 19 -25 -36 0
-12 5 -4 -6 -27 31 0
48 0
