sat_easy_train/easy_2065_UNSAT.dimacs
p cnf 124 412
4 2 0
4 -3 0
-2 3 -4 0
-4 -5 -6 0
4 5 -6 0
-4 5 6 0
4 -5 6 0
-6 7 -8 0
6 -7 -8 0
-6 -7 8 0
6 7 8 0
9 10 -11 0
-9 -10 -11 0
9 -10 11 0
-9 10 11 0
11 12 -13 0
-11 -12 -13 0
11 -12 13 0
-11 12 13 0
-9 -13 -14 0
9 13 -14 0
-9 13 14 0
9 -13 14 0
-8 14 -15 0
8 -14 -15 0
-8 -14 15 0
8 14 15 0
16 -1 0
16 -15 0
1 15 -16 0
-18 17 0
-18 -14 0
-17 14 18 0
20 17 0
20 19 0
-17 -19 -20 0
-18 20 -21 0
18 -20 -21 0
-18 -20 21 0
18 20 21 0
-21 -22 -23 0
21 22 -23 0
-21 22 23 0
21 -22 23 0
24 -1 0
24 11 0
1 -11 -24 0
-9 -25 -26 0
9 25 -26 0
-9 25 26 0
9 -25 26 0
-27 -1 0
-27 26 0
1 -26 27 0
28 -24 0
28 27 0
24 -27 -28 0
29 23 0
29 28 0
-23 -28 -29 0
-30 29 0
-30 9 0
-29 -9 30 0
31 4 0
31 -27 0
-4 27 -31 0
32 -21 0
32 31 0
21 -31 -32 0
33 -30 0
33 32 0
30 -32 -33 0
-34 16 0
-34 33 0
-16 -33 34 0
35 24 0
35 -25 0
-24 25 -35 0
-36 22 0
-36 -13 0
-22 13 36 0
-37 -35 0
-37 36 0
35 -36 37 0
-38 -1 0
-38 27 0
1 -27 38 0
-38 9 -39 0
38 -9 -39 0
-38 -9 39 0
38 9 39 0
-40 -39 0
-40 -2 0
39 2 40 0
-41 -40 0
-41 23 0
40 -23 41 0
-42 -37 0
-42 -41 0
37 41 42 0
-43 -11 0
-43 10 0
11 -10 43 0
44 43 0
44 -38 0
-43 38 -44 0
45 42 0
45 -44 0
-42 44 -45 0
-11 -10 -46 0
11 10 -46 0
-11 10 46 0
11 -10 46 0
-1 -46 -47 0
1 46 -47 0
-1 46 47 0
1 -46 47 0
48 12 0
48 2 0
-12 -2 -48 0
-47 48 -49 0
47 -48 -49 0
-47 -48 49 0
47 48 49 0
45 49 -50 0
-45 -49 -50 0
45 -49 50 0
-45 49 50 0
-51 -34 0
-51 50 0
34 -50 51 0
-52 -27 0
-52 6 0
27 -6 52 0
-53 -15 0
-53 -6 0
15 6 53 0
54 -53 0
54 -29 0
53 29 -54 0
56 -55 0
56 -10 0
55 10 -56 0
-58 12 0
-58 -57 0
-12 57 58 0
-7 58 -59 0
7 -58 -59 0
-7 -58 59 0
7 58 59 0
-60 -56 0
-60 -59 0
56 59 60 0
-61 -54 0
-61 -60 0
54 60 61 0
62 -52 0
62 -61 0
52 61 -62 0
-63 -28 0
-63 5 0
28 -5 63 0
-64 -39 0
-64 -22 0
39 22 64 0
-65 63 0
-65 -64 0
-63 64 65 0
-2 13 -66 0
2 -13 -66 0
-2 -13 66 0
2 13 66 0
-67 66 0
-67 -17 0
-66 17 67 0
68 -57 0
68 -48 0
57 48 -68 0
-69 20 0
-69 -21 0
-20 21 69 0
70 -47 0
70 69 0
47 -69 -70 0
-68 70 -71 0
68 -70 -71 0
-68 -70 71 0
68 70 71 0
72 67 0
72 71 0
-67 -71 -72 0
73 -65 0
73 -72 0
65 72 -73 0
-74 26 0
-74 22 0
-26 -22 74 0
-75 -74 0
-75 -14 0
74 14 75 0
76 75 0
76 28 0
-75 -28 -76 0
-2 5 -77 0
2 -5 -77 0
-2 -5 77 0
2 5 77 0
76 77 -78 0
-76 -77 -78 0
76 -77 78 0
-76 77 78 0
-73 -78 -79 0
73 78 -79 0
-73 78 79 0
73 -78 79 0
62 -79 -80 0
-62 79 -80 0
62 79 80 0
-62 -79 80 0
-81 51 0
-81 -80 0
-51 80 81 0
-82 -20 0
-82 -24 0
20 24 82 0
-83 -82 0
-83 -58 0
82 58 83 0
-6 -84 -85 0
6 84 -85 0
-6 84 85 0
6 -84 85 0
-86 83 0
-86 85 0
-83 -85 86 0
-87 19 0
-87 -6 0
-19 6 87 0
-88 19 0
-88 -87 0
-19 87 88 0
-89 -88 0
-89 75 0
88 -75 89 0
90 -1 0
90 -53 0
1 53 -90 0
-91 -7 0
-91 -90 0
7 90 91 0
-92 -89 0
-92 -91 0
89 91 92 0
93 2 0
93 40 0
-2 -40 -93 0
87 -93 -94 0
-87 93 -94 0
87 93 94 0
-87 -93 94 0
-92 94 -95 0
92 -94 -95 0
-92 -94 95 0
92 94 95 0
-86 95 -96 0
86 -95 -96 0
-86 -95 96 0
86 95 96 0
35 -12 -97 0
-35 12 -97 0
35 12 97 0
-35 -12 97 0
98 -97 0
98 -58 0
97 58 -98 0
-39 -66 -99 0
39 66 -99 0
-39 66 99 0
39 -66 99 0
-100 18 0
-100 -7 0
-18 7 100 0
101 99 0
101 -100 0
-99 100 -101 0
102 -98 0
102 101 0
98 -101 -102 0
103 22 0
103 10 0
-22 -10 -103 0
-104 -102 0
-104 103 0
102 -103 104 0
57 100 -105 0
-57 -100 -105 0
57 -100 105 0
-57 100 105 0
-106 -105 0
-106 -90 0
105 90 106 0
-107 -104 0
-107 106 0
104 -106 107 0
-108 46 0
-108 1 0
-46 -1 108 0
109 -107 0
109 108 0
107 -108 -109 0
110 96 0
110 109 0
-96 -109 -110 0
39 -9 -111 0
-39 9 -111 0
39 9 111 0
-39 -9 111 0
112 111 0
112 -56 0
-111 56 -112 0
-113 17 0
-113 -3 0
-17 3 113 0
-113 -114 0
113 -114 0
-13 -114 -115 0
13 114 -115 0
-13 114 115 0
13 -114 115 0
-116 -112 0
-116 115 0
112 -115 116 0
118 97 0
118 -117 0
-97 117 -118 0
18 -40 -119 0
-18 40 -119 0
18 40 119 0
-18 -40 119 0
2 -119 -120 0
-2 119 -120 0
2 119 120 0
-2 -119 120 0
-118 -120 -121 0
118 120 -121 0
-118 120 121 0
118 -120 121 0
116 121 -122 0
-116 -121 -122 0
116 -121 122 0
-116 121 122 0
-123 -110 0
-123 122 0
110 -122 123 0
-124 81 0
-124 -123 0
-81 123 124 0
-36 35 58 -4 0
-1 -99 -115 -94 -85 0
73 120 0
1 -18 99 -44 0
16 -119 89 -36 56 102 0
44 95 12 47 -70 0
-116 87 -86 71 59 0
69 -6 -88 121 102 -110 0
-105 -13 19 47 70 0
95 74 -113 0
-50 35 0
29 24 -7 -65 -80 0
92 -70 -4 17 -24 -1 0
110 39 70 -121 -49 0
42 -88 -60 4 0
61 -102 60 -69 0
88 98 105 -7 114 0
86 108 105 -123 75 78 0
42 -70 -111 0
-24 -60 0
-80 61 24 0
-29 101 -3 0
-79 116 0
5 -118 -47 -58 98 -10 0
-49 31 0
-115 -2 -74 0
98 34 -44 120 0
-41 -55 0
-44 62 39 113 91 98 0
10 -117 0
14 -8 55 0
41 -72 0
55 7 0
87 7 -85 0
-33 64 91 25 -14 -56 0
-58 62 0
9 -90 -63 68 101 19 0
8 -93 53 37 0
28 124 68 -108 0
-60 -92 -110 24 0
49 6 -118 0
39 62 113 59 58 21 0
61 4 -101 95 123 0
61 79 65 0
121 -32 42 116 0
-113 62 30 124 53 0
16 -116 0
-19 -116 -66 -58 0
72 -112 67 31 -98 0
-9 -25 -99 -48 -105 0
-43 122 75 -87 0
27 -71 -91 0
-33 86 -82 8 78 -40 0
-24 2 -107 -51 -64 0
124 0
